10J3M/DAT/10J3MNTA-18.dat
10 3
21.2565 451.8388
29.7619 885.7707
22.4406 503.5805
11.2808 127.2564
28.0039 784.2184
21.8264 476.3917
25.9397 672.868
27.7283 768.8586
25.6791 659.4162
24.7402 612.0775
1485.5692