10J3M/SOL/10J3MNTA-18.sol
solution status: optimal solution found
objective value:                     76.5577978503466
x#1#3                                               1 	(obj:0)
x#2#1                                               1 	(obj:0)
x#3#1                               0.370556068711743 	(obj:0)
x#3#2                               0.629443931288257 	(obj:0)
x#4#1                                               1 	(obj:0)
x#5#1                               0.385530610128413 	(obj:0)
x#5#3                               0.614469389871587 	(obj:0)
x#6#2                               0.481221610419295 	(obj:0)
x#6#3                               0.518778389580705 	(obj:0)
x#7#2                                               1 	(obj:0)
x#8#2                                0.66736450566486 	(obj:0)
x#8#3                                0.33263549433514 	(obj:0)
x#10#3                              0.341176387310094 	(obj:0)
z                                    76.5577978503466 	(obj:1)
